
Gurobi 11.0.1 (win64) logging started Wed May 15 12:30:26 2024

Set parameter LogFile to value "output/solver_log6.txt"
Gurobi Optimizer version 11.0.1 build v11.0.1rc0 (win64 - Windows 11.0 (22631.2))

CPU model: 11th Gen Intel(R) Core(TM) i7-1165G7 @ 2.80GHz, instruction set [SSE2|AVX|AVX2|AVX512]
Thread count: 4 physical cores, 8 logical processors, using up to 8 threads

Optimize a model with 2083 rows, 350 columns and 38025 nonzeros
Model fingerprint: 0x379d5fb7
Variable types: 248 continuous, 102 integer (102 binary)
Coefficient statistics:
  Matrix range     [4e-01, 1e+05]
  Objective range  [1e+00, 1e+02]
  Bounds range     [1e+00, 1e+00]
  RHS range        [1e-02, 1e+05]

User MIP start produced solution with objective 75783.5 (0.00s)
User MIP start produced solution with objective 75783.5 (0.01s)
Loaded user MIP start with objective 75783.5

Presolve removed 89 rows and 85 columns
Presolve time: 0.03s
Presolved: 1994 rows, 265 columns, 37565 nonzeros
Variable types: 230 continuous, 35 integer (35 binary)

Root relaxation: cutoff, 56 iterations, 0.01 seconds (0.01 work units)

    Nodes    |    Current Node    |     Objective Bounds      |     Work
 Expl Unexpl |  Obj  Depth IntInf | Incumbent    BestBd   Gap | It/Node Time

     0     0     cutoff    0      75783.4808 75783.4808  0.00%     -    0s

Explored 1 nodes (56 simplex iterations) in 0.09 seconds (0.15 work units)
Thread count was 8 (of 8 available processors)

Solution count 2: 75783.5 75783.5 

Optimal solution found (tolerance 1.00e-04)
Best objective 7.578348081163e+04, best bound 7.578348081163e+04, gap 0.0000%
